proyfinal/src/viki/013/experimentInOfficeAgust.take6.output/e9c6554e-faa0-47d7-9ad8-7a90aa07c65c.als.out
Reading from standard input... Use '--help' for help.
============================[ Problem Statistics ]=============================
|                                                                             |
|  Number of variables:         87638                                         |
|  Number of clauses:          161767                                         |
|  Parse time:                   0.04 s                                       |
|                                                                             |
============================[ Search Statistics ]==============================
| Conflicts |          ORIGINAL         |          LEARNT          | Progress |
|           |    Vars  Clauses Literals |    Limit  Clauses Lit/Cl |          |
===============================================================================
|       100 |   62243   104693   261618 |    38387      100     42 | 28.977 % |
|       250 |   62243   104693   261618 |    42226      250     39 | 28.977 % |
|       475 |   62243   104693   261618 |    46448      475     55 | 28.977 % |
|       812 |   62234   104617   261440 |    51093      746     56 | 28.987 % |
|      1318 |   62234   104617   261440 |    56203     1252     88 | 28.988 % |
|      2077 |   62234   104617   261440 |    61823     2011    103 | 28.987 % |
|      3216 |   62197   104467   261093 |    68005     3147    111 | 29.030 % |
|      4924 |   62177   104389   260906 |    74806     4427    114 | 29.052 % |
|      7486 |   62177   104389   260906 |    82286     6989    129 | 29.052 % |
===============================================================================
restarts              : 38
conflicts             : 9131           (5474 /sec)
decisions             : 35570          (0.00 % random) (21324 /sec)
propagations          : 17166968       (10291589 /sec)
conflict literals     : 1094295        (50.02 % deleted)
Memory used           : 26.87 MB
CPU time              : 1.66806 s

UNSATISFIABLE
